c FILE: aim2-3yes.cnf
c
c SOURCE: Kazuo Iwama, Eiji Miyano (miyano@cscu.kyushu-u.ac.jp),
c          and Yuichi Asahiro
c
c DESCRIPTION: Artifical instances from generator by source.  Generators
c              and more information in sat/contributed/iwama.
c
c NOTE:  Satisfiable
c
p cnf 2 3
1 -2 0
2 -1 0
1 2 0
